Version identifier: 20.1.0.0 | 2020-11-10 | 9bedb6d68
Tried aggregator 3 times.
MIP Presolve eliminated 640 rows and 347 columns.
MIP Presolve modified 1259 coefficients.
Aggregator did 80 substitutions.
Reduced MIP has 486 rows, 405 columns, and 1520 nonzeros.
Reduced MIP has 92 binaries, 313 generals, 0 SOSs, and 0 indicators.
Presolve time = 0.01 sec. (3.02 ticks)
Found incumbent of value 402.000000 after 0.01 sec. (4.38 ticks)
Probing fixed 14 vars, tightened 121 bounds.
Probing time = 0.00 sec. (0.39 ticks)
Tried aggregator 2 times.
MIP Presolve eliminated 199 rows and 41 columns.
MIP Presolve modified 48 coefficients.
Aggregator did 12 substitutions.
Reduced MIP has 275 rows, 352 columns, and 856 nonzeros.
Reduced MIP has 140 binaries, 212 generals, 0 SOSs, and 0 indicators.
Presolve time = 0.00 sec. (1.13 ticks)
Probing time = 0.00 sec. (0.10 ticks)
Tried aggregator 1 time.
Detecting symmetries...
MIP Presolve modified 76 coefficients.
Reduced MIP has 275 rows, 352 columns, and 856 nonzeros.
Reduced MIP has 142 binaries, 210 generals, 0 SOSs, and 0 indicators.
Presolve time = 0.00 sec. (0.66 ticks)
Probing time = 0.00 sec. (0.10 ticks)
Clique table members: 55.
MIP emphasis: balance optimality and feasibility.
MIP search method: dynamic search.
Parallel mode: deterministic, using up to 24 threads.
Root relaxation solution time = 0.00 sec. (1.04 ticks)

        Nodes                                         Cuts/
   Node  Left     Objective  IInf  Best Integer    Best Bound    ItCnt     Gap

*     0+    0                          402.0000        0.0000           100.00%
*     0+    0                           18.0000        0.0000           100.00%
      0     0        0.3125    85       18.0000        0.3125      137   98.26%
      0     0        1.9600   109       18.0000      Cuts: 47      226   89.11%
*     0+    0                           13.0000        1.9600            84.92%
      0     0        3.0000   107       13.0000      Cuts: 75      282   76.92%
      0     0        3.9848   128       13.0000      Cuts: 64      323   69.35%
*     0+    0                           12.0000        3.9848            66.79%
      0     0        4.5088   131       12.0000      Cuts: 56      355   62.43%
      0     0        4.5294   127       12.0000      Cuts: 32      378   62.25%
      0     0        4.6610   138       12.0000      Cuts: 51      405   61.16%
      0     0        4.6610   132       12.0000      Cuts: 52      423   61.16%
      0     0        4.9608   129       12.0000      Cuts: 26      440   58.66%
      0     0        4.9608   144       12.0000      Cuts: 45      474   58.66%
*     0+    0                           11.0000        4.9608            54.90%
*     0+    0                            9.0000        4.9608            44.88%
      0     0        cutoff              9.0000        9.0000      474    0.00%
Elapsed time = 0.69 sec. (48.19 ticks, tree = 0.01 MB, solutions = 6)

Clique cuts applied:  9
Implied bound cuts applied:  15
Flow cuts applied:  2
Mixed integer rounding cuts applied:  3
Zero-half cuts applied:  42
Gomory fractional cuts applied:  6

Root node processing (before b&c):
  Real time             =    0.69 sec. (48.25 ticks)
Parallel b&c, 24 threads:
  Real time             =    0.00 sec. (0.00 ticks)
  Sync time (average)   =    0.00 sec.
  Wait time (average)   =    0.00 sec.
                          ------------
Total (root+branch&cut) =    0.69 sec. (48.25 ticks)

Solution status = Optimal
Solution LB = 9
Solution UB = 9
Runtime = 0.693231 seconds
	Command being timed: "/home/min/git_repos/CS598MEBProject/CNT-ILP/build/cnt -s 2 ./output/k6_n15/simC_c1_k6_n15_u3_s2_del04.input-left.cnp"
	User time (seconds): 12.51
	System time (seconds): 0.03
	Percent of CPU this job got: 1727%
	Elapsed (wall clock) time (h:mm:ss or m:ss): 0:00.72
	Average shared text size (kbytes): 0
	Average unshared data size (kbytes): 0
	Average stack size (kbytes): 0
	Average total size (kbytes): 0
	Maximum resident set size (kbytes): 46248
	Average resident set size (kbytes): 0
	Major (requiring I/O) page faults: 0
	Minor (reclaiming a frame) page faults: 8523
	Voluntary context switches: 1758
	Involuntary context switches: 2374
	Swaps: 0
	File system inputs: 0
	File system outputs: 16
	Socket messages sent: 0
	Socket messages received: 0
	Signals delivered: 0
	Page size (bytes): 4096
	Exit status: 0
